# Input file for uniaxial compressive loading of single crystal aluminum
# Mark Tschopp, November 2010
variable tmp equal 1e-20
# ------------------------ INITIALIZATION ----------------------------
units 		metal
dimension	2
boundary	p	p	p
atom_style	atomic

variable    M equal 12
variable    N equal 6
variable    rmin equal ($M/$N)^(1/($M-$N))
variable 	a equal  (${rmin})
variable 	c equal  2/(sqrt(3)*($a^2))*1.2
variable    latparam equal ${c}

# ----------------------- ATOM DEFINITION ----------------------------
lattice		hex ${latparam}
region		whole block 0 10 0 10 -0.5 0.5 
create_box	1 whole

region		upper block INF INF INF INF INF INF units box 
lattice 	hex ${latparam} orient x 1 0 0 orient y 0 1 0
create_atoms	1 region upper

# ------------------------ FORCE FIELDS ------------------------------
# pair_style	eam/alloy
# pair_coeff	* * Al99.eam.alloy Al
pair_style      lj/cut 1.2
pair_coeff      * * 100.0 1
# pair_modify     shift yes
fix 			2d  all enforce2d
mass * 1.0
# ------------------------- SETTINGS ---------------------------------
compute csym all centro/atom fcc
compute peratom all pe/atom 
# Use cfg for AtomEye
dump 		1 all custom 100 dump.du mass type xs ys zs c_csym c_peratom fx fy fz

######################################
# EQUILIBRATION
reset_timestep	0
timestep 0.001
# velocity all create ${tmp} 12345 mom yes rot no
fix 1 all npt temp ${tmp} ${tmp} 1 iso 0 0 1 drag 1 

# Set thermo output
thermo 100
thermo_style custom step lx ly lz press pxx pyy pzz pe temp

# Run for at least 10 picosecond (assuming 1 fs timestep)
run 20000
unfix 1

# Store final cell length for strain calculations
variable tmp equal "lx"
variable L0 equal ${tmp}
print "Initial Length, L0: ${L0}"

######################################
# DEFORMATION
reset_timestep	0

fix		1 all npt temp ${tmp} ${tmp} 1 y 0 0 1 drag 1
variable srate equal 1.0e10
variable srate1 equal "-v_srate / 1.0e12"
fix		2 all deform 1 x erate ${srate1} units box remap x

# Output strain and stress info to file
# for units metal, pressure is in [bars] = 100 [kPa] = 1/10000 [GPa]
# p2, p3, p4 are in GPa
variable strain equal "(lx - v_L0)/v_L0"
variable p1 equal "v_strain"
variable p2 equal "-pxx/10000"
variable p3 equal "-pyy/10000"
variable p4 equal "-pzz/10000"
fix def1 all print 100 "${p1} ${p2} ${p3} ${p4}" file Al_comp_100.def1.txt screen no

# dump_modify     1 element Al

# Display thermo
# thermo 	100
# thermo_style	custom step v_strain temp v_p2 v_p3 v_p4 ke pe press

run		20000

######################################
# SIMULATION DONE
print "All done"