# 3d Lennard-Jones melt, thermostatted by fix controller

units           lj
atom_style      atomic
boundary        p p m
processors      * * 1
lattice         fcc 0.8442
region          box block 0 10 0 10 -4 14
region          slab block 0 10 0 10 0 10
create_box      1 box
create_atoms    1 region slab
mass            1 1.0

velocity        all create 1.44 87287 loop geom

pair_style      lj/cut 2.5
pair_coeff      1 1 1.0 1.0 2.5

neighbor        0.3 bin
neigh_modify    delay 2 every 2 check yes

fix             1 all nve
fix             3 all langevin 1.5 1.5 0.5 412513

variable        zhi internal $(10.5*zlat)
variable        kwall equal 20.0
fix             2 all wall/harmonic zlo -0.5 ${kwall} 0.0 2.5 zhi v_zhi ${kwall} 0.0 2.5

variable        pzz equal pzz
fix             ave all ave/time 10 10 100 v_pzz
# equilibrate

thermo_style    custom  step temp pxx pyy pzz f_ave v_zhi
thermo           500
run             2500

# use time averaged pressure for control
#fix             10 all controller 100 -0.05 20.0 0.0 0.0 f_ave 1.5 zhi

# use instantaneous pressure for control
fix             10 all controller 100 -0.05 50.0 0.0 0.0 v_pzz 1.5 zhi


## Output Setup -------------------------------------------------------------------
variable	savestep equal 1
variable        t equal "step*dt"

# pe is per atom in thermo
thermo_style    custom atoms v_t press step temp pe ke etotal ecouple econserve xlo xhi ylo yhi
# thermo_modify   lost ignore
compute         c1 all ke/atom
compute         c2 all pe/atom
compute         3 all stress/atom NULL
compute         1 all property/local patom1 patom2 ptype1 ptype2
compute 	    2 all pair/local dist eng fx fy fz #p1 p2 p3
dump   	        1 all custom ${savestep} visualize.du &
								id type &
								x y z &
								vx vy vz &
								fx fy fz & 
								c_c1 c_c2 &
								c_3[1] c_3[2] c_3[3] c_3[4] c_3[5] c_3[6]
#dump 	        2 all local ${savestep} dump.neigh index c_1[1] c_1[2] &
										            c_2[1] c_2[2] &
										            c_2[3] c_2[4] c_2[5]
## 

# run with controller

run             5000

