# 2d indenter simulation

dimension	2
boundary	p s p

atom_style	sphere
neighbor	0.3 bin
neigh_modify	delay 5

# create geometry

lattice		hex 0.9
region		box block 0 20 0 10 -0.25 0.25
create_box	2 box
create_atoms	1 box
comm_modify    vel yes
# mass		1 1.0
# mass		2 1.0

# LJ potentials

# pair_style	lj/cut 2.5
# pair_coeff	* * 1.0 1.0 2.5
pair_style		gran/hertz/history 200000 NULL 50.0 NULL 0.1 1
pair_coeff    	* *

# define groups

region	        1 block INF INF INF 1.25 INF INF
group		lower region 1
group		mobile subtract all lower
set		group lower type 2

# initial velocities

compute	  	new mobile temp
compute 	4 all property/atom vx vy vz fx fy fz
velocity	mobile create 0.2 482748 temp new
fix		1 all nve
fix		2 lower setforce 0.0 0.0 0.0
# fix		3 all temp/rescale 100 0.1 0.1 0.01 1.0
fix		gravity_ mobile gravity 10.0 spherical 0.0 180.0

# run with indenter

timestep	0.003
variable	k equal 1000.0/xlat
variable        y equal "9.0*ylat - step*dt*0.02*ylat"

fix		4 all indent $k sphere 10 v_y 0 5.0
fix		5 all enforce2d

thermo		1000
thermo_modify	temp new
thermo_style	custom v_y 
#dump		1 all atom 250 dump.indent
dump   	5 all custom 250 dump.indent id type x y z vx vy vz fx fy fz

#dump		2 all image 1000 image.*.jpg type type &
#		zoom 1.6 adiam 1.5
#dump_modify	2 pad 5

#dump		3 all movie 1000 movie.mpg type type &
#		zoom 1.6 adiam 1.5
#dump_modify	3 pad 5

run		30000

# run without indenter

unfix           4
run		30000
