# ## Defining global variables -----------------------------------------------------
variable	seed equal 5008
variable	tstep equal  .0001
variable	rstep equal 10/${tstep}
variable	savestep equal 1/${tstep}
variable	F equal .5
variable   	n equal  5  # Total number will be NXN
variable   	TN equal ${n}*${n}

# For LJ Potentials
variable    M equal 12
variable    N equal 6
variable	gamma_rep equal ${M}  # ideally 12
variable	gamma_att equal ${N}  # ideally 6
variable    disorder equal ${D}
variable	sigma_a equal  1+${disorder}
variable    sigma_b equal  1-${disorder}
variable    r_cut equal 1.2
variable    rmin equal ($M/$N)^(1/($M-$N))
variable 	a equal  (${rmin})
variable 	c equal  2/(sqrt(3)*($a^2))

# 2d LJ obstacle flow
dimension 2
boundary p p p
atom_style sphere
neighbor 0.3 bin
neigh_modify delay 5

# create geometry
lattice 		hex ${c}
region 			box block 0 50 0 30 -0.25 0.25
create_box 		2 box
create_atoms 	1 box

group 			mobile type 1
set				group mobile type/fraction 2 ${F} 12345
set             type 1 diameter ${sigma_a}
set             type 2 diameter ${sigma_b}

# LJ potentials
pair_style      lj/cut ${r_cut}
pair_coeff      1 1 100.0 ${sigma_a}
pair_coeff      2 2 100.0 ${sigma_b}
pair_coeff      1 2 100.0 1

# pair_style    mie/cut ${r_cut}
# pair_coeff    1 1 1.0 ${sigma_a} ${gamma_rep} ${gamma_att}
# pair_coeff    2 2 1.0 ${sigma_b} ${gamma_rep} ${gamma_att}
# pair_coeff    1 2 1.0 1 ${gamma_rep} ${gamma_att}

pair_modify     shift yes

fix 			2d  all enforce2d

# ---------- Run Minimization --------------------- 
reset_timestep 0 
compute         eng all pe/atom 
compute         eatoms all reduce sum c_eng
fix             1 all box/relax iso 0.0 vmax 0.001
# thermo          100 
thermo	        ${savestep}
thermo_style    custom step pe lx ly lz press pxx pyy pzz c_eatoms 
min_style       cg 
minimize        1e-25 1e-25 10000 10000 
unfix 	        1


######################################
# Output Setup
variable        t equal "step*dt"
thermo	        ${savestep}
# pe is per atom in thermo
# thermo_style    custom atoms v_t step temp pe ke etotal ecouple econserve xlo xhi ylo yhi
# thermo_modify   lost ignore
compute 		csym all centro/atom 6
compute 		peratom all pe/atom 
compute         c1 all ke/atom
compute         c2 all pe/atom
compute         3 all stress/atom NULL
compute         1 all property/local patom1 patom2 ptype1 ptype2
compute 	    2 all pair/local dist eng fx fy fz #p1 p2 p3
dump   	        1 all custom ${savestep} visualize.du &
								id type radius &
								x y z &
								vx vy vz &
								fx fy fz & 
								c_c1 c_c2 &
								c_3[1] c_3[2] c_3[3] c_3[4] c_3[5] c_3[6]
dump 	        2 all local ${savestep} dump.neigh index c_1[1] c_1[2] &
										            c_2[1] c_2[2] &
										            c_2[3] c_2[4] c_2[5]


######################################
# EQUILIBRATION
reset_timestep	0
# timestep 0.05 # timestep = 0.01 femto-second

compute	           new2 all temp
velocity           all create .00001 482748 temp new2
fix                1 all npt temp .00001 1e-20 1 iso .0001 .0001 1 drag 1
# fix                 1 all nvt temp .0001 .0001 1.0

# Set thermo output
# thermo 100
thermo_style custom step lx ly lz press pxx pyy pzz pe temp

run         ${rstep} # 1000000 This is 20 femtosecond # you have to equilibrate it till the structure stops moving
unfix	    1
undump	    2
