## Defining global variables -----------------------------------------------------
variable	seed equal 5008
variable	tstep equal  .0001
variable	rstep equal 10/${tstep}
variable	savestep equal 1/${tstep}
variable	F equal 0
variable   	n equal  50  # Total number will be NXN
variable   	TN equal ${n}*${n}
variable 	r2step equal ${rstep}

# For LJ Potentials
variable	gamma_rep equal 12 # ${M}  # ideally 12
variable	gamma_att equal 0  # ${N}  # ideally 6
variable    disorder equal ${D}
variable	sigma_a equal  1+${disorder}
variable    sigma_b equal  1-${disorder}
variable    sigma_ab equal  (${sigma_a}+${sigma_b})/2
variable    sigma_3b equal  (1+${sigma_b})/2
variable    sigma_3a equal  (1+${sigma_a})/2
variable    alpha equal  1
variable 	r_cut_a equal ${sigma_a}*${alpha}
variable 	r_cut_b equal ${sigma_b}*${alpha}
variable 	r_cut_ab equal (${r_cut_a}+${r_cut_b})/2
variable 	r_cut_ab equal ${sigma_ab}*${alpha}
variable 	r_cut_3b equal ${sigma_3b}*${alpha}
variable 	r_cut_3a equal ${sigma_3a}*${alpha}
# dia_a , dia_b are the minimium positions
if "${alpha} <= 1.12" then "variable dia_a equal ${sigma_a}*${alpha}" else "variable dia_a equal ${sigma_a}*1.12"
if "${alpha} <= 1.12" then "variable dia_b equal ${sigma_b}*${alpha}" else "variable dia_b equal ${sigma_b}*1.12"
variable 	a equal  ${dia_a}
variable 	c equal  2/(sqrt(3)*($a^2))
variable   	lx equal ($n)*$a
variable	Level equal (2*${n}^2)/(2*${n}-1)  # Even number of levels
variable   	ily equal ${a}*(${Level}-1)*sqrt(3)/2
## --------------------------------------------------------------------------------

## Define Domain ------------------------------------------------------------------
units lj
dimension 	2
atom_style	sphere
boundary    p fm p	# When force constrolled indenter is applied
variable	sw equal 2*${ily}
variable	lx1 equal ${lx}
region		box block 0 50 0 ${sw} -.5 .5 units box
newton   	off
comm_modify    vel yes
neighbor    0.2 bin
### delay or every or check or once or cluster or include or exclude or page or one or binsize
neigh_modify    delay 0
### create the simulation box with one type of particle, based on the specified region.
### Thus a region command must first be used to define a geometric domain.
create_box 3 box

variable lo equal xlo
variable hi equal xhi
# fix 	ylower all wall/gran hooke 1e5 0 0 0 0 0 yplane 0.0 NULL

## Inserting particles -----------------------------------------------------------
### Lattice stucture
lattice 		hex ${c}
region 			slab block 0 50 0.5 ${ily} -0.5 0.5 units box
# lattice 	    hex ${c} origin 0.5 0.8 0.0
# region          slab block 0.0 ${lx1} 0.0 ${ily} -.5 .5 units box
create_atoms    1 region slab units box

### Random Insertion (Settle time needs to be increased)
# create_atoms    1 random ${TN} ${seed} box

### Random Pour
# region    INslab block 1 ${lx} ${ly} ${ily} -.5 .5 units box
# fix       ins all pour 100 1 ${seed} vol 1 100 diam one ${dia1} region INslab vel -10 10 0 rate 0.0
group 			mobile type 1
set				group mobile type/fraction 2 ${F} 12345
set             type 1 diameter ${dia_a}
set             type 2 diameter ${dia_b}
## --------------------------------------------------------------------------------

## Particle Interaction Functions -------------------------------------------------
# pair_style    	mie/cut 1
# pair_coeff    	1 1 1.0 ${sigma_a} ${gamma_rep} ${gamma_att} ${r_cut_a}
# pair_coeff    	2 2 1.0 ${sigma_b} ${gamma_rep} ${gamma_att} ${r_cut_b}
# pair_coeff    	1 2 1.0 1 ${gamma_rep} ${gamma_att} 1
# pair_coeff    	1 3 1.0 1 ${gamma_rep} ${gamma_att} 1
# pair_coeff    	2 3 1.0 1 ${gamma_rep} ${gamma_att} 1
# pair_coeff    	3 3 1.0 0 ${gamma_rep} ${gamma_att} 1
# pair_style    mie/cut ${r_cut_a}
# pair_coeff    1 1 1.0 ${sigma_a} ${gamma_rep} ${gamma_att}
# pair_coeff    2 2 1.0 ${sigma_b} ${gamma_rep} ${gamma_att}
# pair_coeff    1 2 1.0 1 ${gamma_rep} ${gamma_att}
# pair_coeff    3 * 1.0 1 12 0
# pair_modify   shift yes

# potentials functions
pair_style      lj/cut 1
pair_coeff      1 1 1.0 ${sigma_a} ${r_cut_a}
pair_coeff      2 2 1.0 ${sigma_b} ${r_cut_b}
pair_coeff      1 2 1.0 ${sigma_ab} ${r_cut_ab}
pair_coeff      3 * 1.0 1 1
# pair_coeff  	1 3 1.0 ${sigma_3a} ${r_cut_3a}
# pair_coeff  	2 3 1.0 ${sigma_3b} ${r_cut_3b}
pair_modify     shift yes

## Impose an additional acceleration on each particle in the group. (180 for -y direction)
# fix		gravity_ all gravity 10 spherical 0.0 180.0
# fix_modify gravity_ energy yes
## -------------------------------------------------------------------------------
# Specify simulation tpye
fix 	2d  all enforce2d
timestep	${tstep}

## Output Setup -------------------------------------------------------------------
variable        t equal "step*dt"
thermo	        ${savestep}
# pe is per atom in thermo
thermo_style 	custom atoms v_t step pe ke etotal lx ly lz press
# thermo_style    custom atoms v_t step temp pe ke etotal ecouple econserve xlo xhi ylo yhi
# thermo_modify   lost ignore
compute         c1 all ke/atom
compute         c2 all pe/atom
compute         3 mobile stress/atom NULL
compute         1 mobile property/local patom1 patom2 ptype1 ptype2
compute 	    2 mobile pair/local dist eng fx fy fz #p1 p2 p3
dump   	        1 mobile custom ${savestep} visualize.du &
								id type radius &
								x y z &
								vx vy vz &
								fx fy fz & 
								c_c1 c_c2 &
								c_3[1] c_3[2] c_3[3] c_3[4] c_3[5] c_3[6]
dump 	        2 mobile local ${savestep} dump.neigh index c_1[1] c_1[2] &
										            c_2[1] c_2[2] &
										            c_2[3] c_2[4] c_2[5]

## -------------------------------------------------------------------------------
# Relaxation
# fix 			nve_int all nve/sphere
# fix 			damp all langevin 0 0 1.0 699483
# run 			${rstep}

reset_timestep	0
fix             relax all box/relax x 0 vmax .001
minimize		0  0  100000  100000
unfix 	        relax
# unfix 2d
## Indenter Setup ----------------------------------------------------------------
reset_timestep	0
fix 			nve_int all nve/sphere
# fix 			damp all langevin 0 0 .1 699483
run ${rstep}
# variable      	cch equal ${ily}+2
# variable      	ccl equal ${ily}+1
# variable      	xh equal xhi
# variable      	xl equal xlo

# lattice 	    sq 4 origin .5 0 0
# region          indenter block ${xl} ${xh} ${ccl} ${cch} -.5 .5 units box
# # region          indenter block 0.5 ${lx1} ${y0} ${y1} -.5 .5 units box
# create_atoms	3 region indenter
# set         	type 3 diameter 1
# group			pressure region indenter
# fix             31 pressure rigid single torque * off off off
# fix 			2d  all enforce2d
# fix				3 pressure setforce 0.0 NULL 0.0

# fix				4 pressure addforce 0.0 -1 0.0
# fix_modify      4 energy yes
# run				${rstep}

# unfix damp
# fix 			damp all langevin 0 0 .1 699483
# run 			${rstep}

# unfix damp
# fix 			damp all langevin 0 0 .01 699483
# run 			${rstep}

# unfix damp
# fix 			damp all langevin 0 0 .001 699483
# run 			${rstep}

# unfix damp
# fix 			damp all langevin 0 0 .0001 699483
# run 			${rstep}

# # fix				5 pressure addforce 0.0 -1 0.0
# # fix_modify      5 energy yes
# # run				${rstep}

# # fix				6 pressure addforce 0.0 -1 0.0
# # fix_modify      6 energy yes
# # run				${rstep}

# # fix				7 pressure addforce 0.0 -1 0.0
# # fix_modify      7 energy yes
# # run				${rstep}

# # reset_timestep	0

# # unfix 			nve_int
# # fix				nvt_int mobile nvt temp 1e-50 1e-50 1.0
# # run 			${r2step}
