#uniaxial tensile test of graphene
variable 	 a equal  1
variable 	 c equal  2/(sqrt(3)*($a^2))

##---------------INITIALIZATION-------------------------------

units          metal
dimension 	    2 
boundary       p p p
atom_style 	atomic
newton 		on


##---------------ATOM DEFINITION------------------------------

lattice hex $c origin 0 0 0
region whole block 0 10 0 10 -.5 .5
create_box 1 whole
create_atoms 1 region whole


##---------------FORCE FIELDS---------------------------------

mass	      * 1.0
pair_style    mie/cut 1.25
pair_coeff    * * 1.0 1 12 6


##---------------SETTINGS-------------------------------------

timestep 	0.0005
variable   ts equal 0.0005


##---------------COMPUTES-------------------------------------

compute 	1 all stress/atom NULL
compute    2 all reduce sum c_1[1] c_1[2]


variable   Lx equal lx
variable   Ly equal ly
variable   Lz equal lz
variable   Vol equal vol
variable   thickn equal 3.4
fix 1 all nve
#fix		1 all npt temp 0 1e-20 0.05 x 0 0 0.5 y 0 0 0.5
thermo 	2000
##---------------RELAXATION--------------------------------------

run            50000


##---------------DEFORMATION--------------------------------------
unfix              1
reset_timestep     0
fix		1 all npt temp 1e-20 1e-20 0.05 x 0 0 0.5
fix        2 all ave/time 1 100 100 c_2[1] c_2[2]
fix        3 all ave/time 1 100 100 v_Lx v_Ly v_Lz v_Vol
variable   srate equal 1.0e9
variable   srate1 equal "-v_srate / 1.0e12"
fix		4 all deform 1 y erate ${srate1} units box remap x
run            100
##---------------THERMO-OUTPUTS--------------------------------------
variable   CorVol equal f_3[4]*v_thickn/(f_3[3])
variable   ConvoFac equal 1/1.0e4
variable   sigmaxx equal f_2[1]*v_ConvoFac/v_CorVol
variable   sigmayy equal f_2[2]*v_ConvoFac/v_CorVol
variable   StrainPerTs equal v_srate1*v_ts
variable   strain equal v_StrainPerTs*step
thermo 	100
thermo_style custom step temp v_strain v_sigmaxx v_sigmayy pe ke lx ly vol 


##---------------DEFORMATION--------------------------------------
dump           1 all atom 5000 tensile_test.lammpstrj
run            50000


