# Variables F-Fraction, D-Disorder, M-Repulvie exponent, N-Attractive exponent
# Only for hex geometry

variable      gamma_rep equal ${M}  # ideally 12
variable      gamma_att equal ${N}  # ideally 6
variable      disorder equal ${D}
variable      sigma_a equal  1+${disorder}
variable      sigma_b equal  1-${disorder}

variable     n equal  10  # Total number will be NXN
variable     rmin equal ($M/$N)^(1/($M-$N))
variable     r_cut equal 1.2
variable 	 a equal  (${rmin})
variable 	 c equal  2/(sqrt(3)*($a^2))
variable     l equal  ($n-.5)*$a
variable     Level equal (2*${n}^2)/(2*${n}-1)  # Even number of levels
variable     w equal  ${a}*(${Level}-1)*sqrt(3)/2


# 2d indenter simulation with minimization instead of dynamics
dimension     2
boundary      s s p

atom_style    atomic
neighbor      0.3 bin
neigh_modify  delay 5

# create geometry
lattice	      hex $c origin 0 0 0
region	      box block 0 ${l} 0 ${w} -0.25 0.25 units box
create_box    3 box
create_atoms  1 region box units box
# set             type 1 diameter 1
# set             type 2 diameter 1
mass	      * 1.0

# Set boundary particles
variable rb equal xhi-1.2
variable lb equal xlo+1
variable bb equal ylo+1
region        1 block INF INF INF ${bb} INF INF
group	      lower1 region 1
region        2 block INF ${lb} INF INF INF INF units box
group         lower2 region 2
region        3 block ${rb} INF INF INF INF INF units box
group         lower3 region 3
group      	  lower union lower1 lower2 lower3
group	      mobile subtract all lower
set	          group lower type 2
set           group mobile type/fraction 3 ${F} 12345
fix	      	  5 all enforce2d

# mie cut potential
# pair_style    mie/cut ${r_cut}
# pair_coeff    1 1 1.0 ${sigma_a} ${gamma_rep} ${gamma_att}
# pair_coeff    3 3 1.0 ${sigma_b} ${gamma_rep} ${gamma_att}
# pair_coeff    1 3 1.0 1 ${gamma_rep} ${gamma_att}
# pair_coeff    2 * 1.0 1 12 6
pair_style      lj/cut ${r_cut}
pair_coeff      1 1 1.0 ${sigma_a}
pair_coeff      3 3 1.0 ${sigma_b}
pair_coeff      1 3 1.0 1
pair_coeff      2 * 1.0 1
pair_modify     shift yes

minimize      1e-15 1e-15 10000 10000

fix	          2 lower setforce 0.0 0.0 0.0

variable        t equal "step*dt"
thermo	        1
# pe is per atom in thermo
thermo_style    custom atoms v_t step temp pe ke etotal ecouple econserve xlo xhi ylo yhi
thermo_modify   lost ignore
compute         c1 all ke/atom
compute         c2 all pe/atom
compute         3 mobile stress/atom NULL
compute         1 mobile property/local patom1 patom2 ptype1 ptype2
compute 	    2 mobile pair/local dist eng fx fy fz #p1 p2 p3
dump   	        1 all custom 1 visualize.du id type x y z vx vy vz fx fy fz c_c1 c_c2 & 
								c_3[1] c_3[2] c_3[3] c_3[4] c_3[5] c_3[6]
# dump            dmpvtk all vtk 1 dump*.myforce.vtk id type x y z vx vy vz fx fy fz c_c1 c_c2 
# dump     1 all movie 1 movie.mpg type type
dump 	        2 mobile local 1 dump.neigh index c_1[1] c_1[2] &
										            c_2[1] c_2[2] &
										            c_2[3] c_2[4] c_2[5]

# Need this to dump last minimisation step if in case of late minimisation dump timestep > 1
# fix	   		  1 all  nve
run 		  1
thermo	        10
dump_modify     1 every 100
dump_modify     2 every 100

# Indenter
variable      k equal 5e5/xlat
variable      r equal lx/2

variable v equal yhi
variable y0 equal $v
variable y equal ${y0}+$r-1

variable v equal (xhi+xlo)/2
variable x equal $v

fix           4 all indent $k sphere $x $y 0 $r units box
fix_modify    4 energy yes

variable      indent_force equal f_4[2]
thermo_style    custom atoms v_y0 v_x v_indent_force v_t step temp pe ke etotal f_4[1] f_4[2] f_4[3]


minimize      0 0 10000 10000

# fix	   1 mobile  nvt temp 1.e-15  1.e-15 0.05
# variable   y equal "290-step*dt*0.1"
# print      "y is $y" 
# # indenter position and radius at onset of loading
# fix	   	4 mobile indent $k sphere 55 v_y 0 100.0 units box
# fix_modify    4 energy yes
# # fix	   	5 mobile indent $k sphere 50 v_y 0 100.0 units box
# thermo_style    custom atoms v_y step temp pe ke etotal ecouple econserve
# run	   	200


# fix_modify    5 energy yes
# minimize      1e-10 1.0e-10 10000 10000


# fix	   		  1 mobile  nve
# run 		  1000
variable      y equal yhi
print "Final ${indent_force} $y"