# 2d indenter simulation with minimization instead of dynamics

dimension     2
boundary      p s p

atom_style    atomic
neighbor        2.0 nsq
neigh_modify  delay 5

# create geometry

lattice	      sq 1
region	      box block 0 20 0 10 -0.25 0.25
create_box    2 box
# create_atoms  1 box
create_atoms    1 single 0 0 0 units box
create_atoms    1 single 0.5 0 0 units box

mass	      * 1.0

# LJ potentials

pair_style    lj/cut 2.5
pair_coeff    * * 1.0 1.0

fix	      5 all enforce2d

# minimize with indenter

thermo	      1
thermo_style    custom atoms step temp pe ke etotal ecouple econserve
# dump	      1 all atom 10 dump.indent
compute         c1 all ke/atom
compute         c2 all pe/atom
dump   	        1 all custom 1 dump.indent id type x y z vx vy vz fx fy fz c_c1 c_c2 

run 1000
minimize      1.0e-6 1.0e-6 1000 1000

variable      k equal 5000.0/xlat
variable      k1 equal 1000.0/xlat