 ##Input Script##
boundary        f f p
dimension 	    2
atom_style      sphere
units           lj
lattice         sq 3.567
region          box block -50 +50 -50 +50 -50 +50 units box
atom_modify     map     array
neighbor        2.0 nsq
create_box      2   box
create_atoms    1   single 0 0 0 units box
create_atoms    2   single 2.7 0 0 units box
# mass            1       12.011
# mass            2       12.011
variable        tstep equal  .01
variable        rstep equal .6/${tstep}
timestep        ${tstep}

pair_style      lj/cut 1
pair_coeff      * * 1.0 1.0
group           myatom id 2
velocity        myatom set -50.0 0 0 units box
variable        dimerdistance equal x[2]-x[1]

# Setup output
compute	        Rke all erotate/sphere
compute         TKe all ke
compute         Pe all pe
compute         1 all pressure thermo_temp
variable        E  equal c_TKe+c_Pe+c_Rke
variable        ke atom "vx*vx+vy*vy+vz*vz"
variable        t equal "step*dt"

thermo          1
thermo_style    custom v_dimerdistance v_t step temp pe ke etotal
thermo_modify   norm no
compute         sys_pe all pe
# shell           mkdir Dump
dump   	        1 all custom 1 visualize.du id type x y z radius vx vy vz fx fy fz v_ke
fix             11 all nve
run             ${rstep}